************************************************************************
file with basedata            : md346_.bas
initial value random generator: 657560892
************************************************************************
projects                      :  1
jobs (incl. supersource/sink ):  22
horizon                       :  162
RESOURCES
  - renewable                 :  2   R
  - nonrenewable              :  2   N
  - doubly constrained        :  0   D
************************************************************************
PROJECT INFORMATION:
pronr.  #jobs rel.date duedate tardcost  MPM-Time
    1     20      0       20       13       20
************************************************************************
PRECEDENCE RELATIONS:
jobnr.    #modes  #successors   successors
   1        1          3           2   3   4
   2        3          2          13  20
   3        3          3           5   6   7
   4        3          3          10  15  18
   5        3          3           8  12  19
   6        3          3           9  10  18
   7        3          1          11
   8        3          2          17  21
   9        3          2          13  17
  10        3          1          14
  11        3          2          12  17
  12        3          3          14  15  20
  13        3          3          14  15  19
  14        3          1          16
  15        3          1          16
  16        3          1          21
  17        3          1          20
  18        3          2          19  21
  19        3          1          22
  20        3          1          22
  21        3          1          22
  22        1          0        
************************************************************************
REQUESTS/DURATIONS:
jobnr. mode duration  R 1  R 2  N 1  N 2
------------------------------------------------------------------------
  1      1     0       0    0    0    0
  2      1     5       2    0    0    9
         2     6       2    0    0    8
         3     8       1    0    5    0
  3      1     3       5    0    2    0
         2     9       5    0    0    6
         3    10       0    4    0    3
  4      1     2      10    0    0    5
         2     7       7    0    2    0
         3     7       0    2    0    4
  5      1     4       0    9    5    0
         2     4       0    8    8    0
         3     8      10    0    0    8
  6      1     1       0    3    9    0
         2     4       7    0    0    1
         3     5       0    3    4    0
  7      1     2       3    0    0    7
         2     2       3    0    9    0
         3     8       0    7    7    0
  8      1     7       8    0    0    5
         2     9       0    3    6    0
         3    10       0    2    0    3
  9      1     1       0    5    0    6
         2     6       3    0    8    0
         3     9       0    5    7    0
 10      1     3       2    0    0    3
         2     7       0    6    9    0
         3    10       0    4    7    0
 11      1     1       0    9    9    0
         2     2       6    0    9    0
         3     9       0    8    0   10
 12      1     1       5    0    0    9
         2     2       0    3    0    4
         3     7       2    0    1    0
 13      1     2       0    4    0    9
         2     6       6    0    6    0
         3     8       6    0    0    8
 14      1     3       9    0    8    0
         2     4       0    5    7    0
         3     5       0    3    3    0
 15      1     3       0    5    9    0
         2     4       6    0    6    0
         3     8       0    1    3    0
 16      1     3       9    0    7    0
         2     4       0    5    7    0
         3     7       8    0    0    3
 17      1     3       0    7    8    0
         2     7       8    0    7    0
         3     7       0    6    8    0
 18      1     3       2    0    7    0
         2     6       0    1    0    3
         3     8       0    1    6    0
 19      1     1       6    0    8    0
         2     8       6    0    0    5
         3    10       0    4    6    0
 20      1     3       4    0    0    8
         2     4       0   10   10    0
         3     8       0    9    0    3
 21      1     5       0    7    0    6
         2     5       0    6    0    7
         3    10       0    2    0    4
 22      1     0       0    0    0    0
************************************************************************
RESOURCEAVAILABILITIES:
  R 1  R 2  N 1  N 2
   15   15  131  104
************************************************************************
MAXIMAL LAGS:
from  to  type  delay
    1   12   ES      0
    1    2   ES      0
    2   12   ES      0
    1    3   ES      0
    3   12   ES      0
    1    4   ES      0
    4   12   ES      0
    1    5   ES      0
    5   12   ES      0
    1    6   ES      0
    6   12   ES      0
    1    7   ES      0
    7   12   ES      0
    1    8   ES      0
    8   12   ES      0
    1    9   ES      0
    9   12   ES      0
    1   10   ES      0
   10   12   ES      0
    1   11   ES      0
   11   12   ES      0
    1   12   ES      0
    2   13   SS      1
    2   13   SE     -2
    2   13   ES     -9
    2   13   EE    -10
    2   20   SS      4
    2   20   SE      6
    2   20   ES     -5
    2   20   EE      6
    3    5   SS     -4
    3    5   SE    -12
    3    5   ES      1
    3    5   EE     10
    3    6   SS     -1
    3    6   SE     -1
    3    6   ES     12
    3    6   EE      2
    3    7   SS      5
    3    7   SE     10
    3    7   ES     -7
    3    7   EE    -12
    4   10   SS     11
    4   10   SE     -9
    4   10   ES      8
    4   10   EE      6
    4   15   SS    -12
    4   15   SE      9
    4   15   ES     -4
    4   15   EE     -6
    4   18   SS     -7
    4   18   SE     -7
    4   18   ES     -5
    4   18   EE     11
    5    8   SS    -11
    5    8   SE     11
    5    8   ES     -7
    5    8   EE     -6
    5   19   SS     -6
    5   19   SE     -6
    5   19   ES     -8
    5   19   EE     -3
    6    9   SS      2
    6    9   SE    -11
    6    9   ES      9
    6    9   EE      2
    6   10   SS     -5
    6   10   SE      7
    6   10   ES     -8
    6   10   EE    -11
    6   18   SS     -9
    6   18   SE     11
    6   18   ES     11
    6   18   EE     -6
    7   11   SS     -1
    7   11   SE      8
    7   11   ES     12
    7   11   EE     12
    8   17   SS     -3
    8   17   SE      9
    8   17   ES      1
    8   17   EE     -8
    8   21   SS     10
    8   21   SE    -10
    8   21   ES     -7
    8   21   EE      3
    9   13   SS      0
    9   13   SE    -12
    9   13   ES     -7
    9   13   EE     -1
    9   17   SS    -11
    9   17   SE      5
    9   17   ES     -7
    9   17   EE      9
   10   14   SS      1
   10   14   SE     -9
   10   14   ES    -10
   10   14   EE     12
   11   17   SS     -7
   11   17   SE     -6
   11   17   ES    -10
   11   17   EE     -8
   12   14   SS      1
   12   14   SE     -9
   12   14   ES      1
   12   14   EE     -5
   12   15   SS     10
   12   15   SE     -7
   12   15   ES     -4
   12   15   EE     10
   12   20   SS      4
   12   20   SE     10
   12   20   ES      5
   12   20   EE      9
   13   14   SS      4
   13   14   SE      6
   13   14   ES      6
   13   14   EE     -2
   13   15   SS      2
   13   15   SE     -7
   13   15   ES      7
   13   15   EE      5
   13   19   SS      9
   13   19   SE      6
   13   19   ES     -6
   13   19   EE      2
   14   16   SS      1
   14   16   SE     -7
   14   16   ES      7
   14   16   EE      2
   15   16   SS     -4
   15   16   SE     -2
   15   16   ES     -4
   15   16   EE      7
   16   21   SS     -6
   16   21   SE     11
   16   21   ES     12
   16   21   EE    -12
   17   20   SS     -6
   17   20   SE      0
   17   20   ES     -3
   17   20   EE      0
   18   19   SS     12
   18   19   SE      5
   18   19   ES      2
   18   19   EE    -10
   18   21   SS      6
   18   21   SE     -9
   18   21   ES     10
   18   21   EE     -8
   19   22   SS    -11
   19   22   SE     -5
   19   22   ES     11
   19   22   EE     10
   20   22   SS      5
   20   22   SE     -9
   20   22   ES      5
   20   22   EE      3
   21   22   SS      0
   21   22   SE      8
   21   22   ES      6
   21   22   EE     10
************************************************************************
